<number of tasks>
11

<cycle time>
48

<task times>
1 4
2 38
3 45
4 12
5 10
6 8
7 12
8 10
9 2
10 10
11 34

<precedence relations>
1,4
2,4
2,5
3,11
4,6
5,7
6,8
7,9
8,10
9,10
10,11

<setup times forward>
1,2:3
1,3:9
1,5:3
1,9:5
2,1:3
2,3:6
2,4:3
3,1:9
3,2:6
3,4:9
3,5:6
3,6:9
3,7:9
3,8:9
3,9:4
3,10:4
3,11:4
4,3:9
4,5:3
4,9:5
5,1:3
5,3:6
5,4:3
5,6:3
5,7:3
5,8:3
6,3:9
6,5:3
6,9:5
7,3:9
7,9:5
8,3:9
8,5:3
8,9:5
8,10:5
9,1:5
9,3:4
9,4:5
9,6:5
9,8:5
10,3:4

<setup times backward>
2,1:3
3,1:9
3,2:6
3,4:9
3,5:6
3,6:9
3,7:9
3,8:9
3,9:4
3,10:4
5,1:3
5,4:3
5,6:3
5,8:3
9,1:5
9,2:2
9,4:5
9,5:2
9,6:5
9,7:5
9,8:5
10,1:5
10,2:2
10,4:5
10,5:2
10,6:5
10,7:5
10,8:5
11,1:5
11,2:2
11,4:5
11,5:2
11,6:5
11,7:5
11,8:5

<end>

<optimal SALBP-1 value>
4


<rand seed>
467321153

